maximize
obj: -118 x_1_ - 196 x_2_ - 67 x_3_ - 237 x_4_ + 418 x_5_ + 268 x_6_ + 599 x_7_ - 222 x_8_ - 92 x_9_ - 225 x_10_ - 10 x_11_ - 63 x_12_ + 564 x_13_ + 556 x_14_ + 458 x_15_ - 116 x_16_ - 93 x_17_ + 280 x_18_ + 364 x_19_ - 178 x_20_ - 164 x_21_ + 316 x_22_ - 114 x_23_ - 236 x_24_ - 49 x_25_ - 29 x_26_ + 285 x_27_ + 607 x_28_ + 407 x_29_ - 142 x_30_ + 286 x_31_ - 193 x_32_ - 48 x_33_ - 157 x_34_ + 417 x_35_ + 482 x_36_ + 374 x_37_ - 23 x_38_ - 118 x_39_ + 444 x_40_ + 579 x_41_ + 567 x_42_ + 686 x_43_ + 248 x_44_ + 466 x_45_ + 544 x_46_ + 559 x_47_ - 154 x_48_ - 119 x_49_ - 197 x_50_ + 555 x_51_ - 115 x_52_ - 183 x_53_ - 23 x_54_ - 271 x_55_ - 219 x_56_ - 136 x_57_ - 58 x_58_ + 275 x_59_ - 184 x_60_ - 82 x_61_ + 540 x_62_ - 86 x_63_ - 79 x_64_ - 124 x_65_ + 339 x_66_ + 299 x_67_ + 426 x_68_ - 95 x_69_ + 298 x_70_ + 305 x_71_ - 87 x_72_ + 360 x_73_ + 382 x_74_ - 169 x_75_ + 349 x_76_ + 452 x_77_ - 14 x_78_ + 352 x_79_ + 307 x_80_ - 191 x_81_ - 98 x_82_ - 31 x_83_ - 216 x_84_ + 659 x_85_ + 702 x_86_ - 146 x_87_ + 371 x_88_ + 494 x_89_ + 526 x_90_ - 141 x_91_ - 45 x_92_ - 250 x_93_ + 422 x_94_ + 711 x_95_ + 367 x_96_ - 28 x_97_ + 301 x_98_ - 87 x_99_ - 187 x_100_ - 147 x_101_ - 25 x_102_ - 56 x_103_ - 35 x_104_ - 234 x_105_ - 49 x_106_ - 225 x_107_ + 598 x_108_ + 586 x_109_ + 286 x_110_ - 149 x_111_ - 121 x_112_ - 39 x_113_ - 131 x_114_ - 123 x_115_ - 56 x_116_ + 526 x_117_ + 257 x_118_ + 345 x_119_ + 298 x_120_ + 408 x_121_ - 1 x_122_ + 346 x_123_ - 281 x_124_ + 563 x_125_ - 76 x_126_ - 101 x_127_ + 249 x_128_ + 377 x_129_ - 80 x_130_ + 295 x_131_ - 147 x_132_ - 88 x_133_ + 513 x_134_ + 295 x_135_ + 556 x_136_ + 384 x_137_ + 536 x_138_ - 37 x_139_ + 279 x_140_ + 436 x_141_ - 161 x_142_ + 399 x_143_ - 159 x_144_ + 712 x_145_ - 76 x_146_ - 57 x_147_ - 43 x_148_ + 484 x_149_ + 290 x_150_ + 290 x_151_ + 260 x_152_ - 112 x_153_ - 128 x_154_ - 226 x_155_ - 33 x_156_ - 347 x_157_ - 39 x_158_ - 184 x_159_ + 399 x_160_ - 1 x_161_ + 355 x_162_ + 564 x_163_ + 442 x_164_ + 522 x_165_ - 33 x_166_ - 18 x_167_ + 605 x_168_ + 627 x_169_ + 255 x_170_ + 270 x_171_ - 120 x_172_ - 91 x_173_ + 629 x_174_ + 560 x_175_ + 814 x_176_ - 20 x_177_ + 468 x_178_ - 183 x_179_ - 114 x_180_ + 289 x_181_ + 610 x_182_ + 267 x_183_ - 165 x_184_ + 729 x_185_ + 413 x_186_ + 481 x_187_ - 231 x_188_ + 315 x_189_ + 452 x_190_ - 89 x_191_ + 485 x_192_ - 97 x_193_ - 218 x_194_ - 1 x_195_ - 125 x_196_ + 286 x_197_ + 597 x_198_ - 116 x_199_ + 499 x_200_ - 137 x_201_ - 111 x_202_ + 256 x_203_ + 521 x_204_ - 32 x_205_ + 508 x_206_ + 273 x_207_ - 104 x_208_ - 191 x_209_ + 320 x_210_ + 316 x_211_ - 158 x_212_ + 479 x_213_ - 77 x_214_ + 263 x_215_ - 138 x_216_ + 292 x_217_ - 16 x_218_ - 195 x_219_ - 165 x_220_ - 140 x_221_ + 678 x_222_ + 343 x_223_ + 402 x_224_ - 2 x_225_ + 311 x_226_ - 186 x_227_ + 385 x_228_ + 373 x_229_ + 549 x_230_ - 171 x_231_ - 119 x_232_ + 602 x_233_ + 264 x_234_ - 89 x_235_ - 22 x_236_ + 629 x_237_ - 198 x_238_ + 541 x_239_ + 643 x_240_ + 564 x_241_ - 7 x_242_ + 374 x_243_ + 566 x_244_ + 849 x_245_ - 220 x_246_ - 45 x_247_ + 583 x_248_ - 149 x_249_ + 566 x_250_ + 1000 s_1_ + 1000 s_2_ + 1000 s_3_ + 1000 s_4_ + 1000 s_5_ - 1000 ss_1_ - 1000 ss_2_ - 1000 ss_3_ - 1000 ss_4_ - 1000 ss_5_
subject to
c6: 1 s_1_ + 785 x_1_ + 51 x_2_ + 304 x_3_ + 860 x_4_ + 852 x_5_ + 451 x_6_ + 353 x_7_ + 127 x_8_ + 642 x_9_ + 664 x_10_ + 667 x_11_ + 523 x_12_ + 599 x_13_ + 433 x_14_ + 528 x_15_ + 454 x_16_ + 126 x_17_ + 136 x_18_ + 498 x_19_ + 540 x_20_ + 49 x_21_ + 227 x_22_ + 27 x_23_ + 542 x_24_ + 521 x_25_ + 252 x_26_ + 542 x_27_ + 586 x_28_ + 676 x_29_ + 887 x_30_ + 297 x_31_ + 541 x_32_ + 793 x_33_ + 510 x_34_ + 839 x_35_ + 867 x_36_ + 340 x_37_ + 135 x_38_ + 88 x_39_ + 107 x_40_ + 682 x_41_ + 200 x_42_ + 775 x_43_ + 499 x_44_ + 124 x_45_ + 384 x_46_ + 806 x_47_ + 335 x_48_ + 755 x_49_ + 141 x_50_ + 892 x_51_ + 856 x_52_ + 160 x_53_ + 365 x_54_ + 10 x_55_ + 382 x_56_ + 609 x_57_ + 421 x_58_ + 985 x_59_ + 77 x_60_ + 810 x_61_ + 186 x_62_ + 411 x_63_ + 681 x_64_ + 889 x_65_ + 19 x_66_ + 555 x_67_ + 370 x_68_ + 304 x_69_ + 611 x_70_ + 870 x_71_ + 133 x_72_ + 912 x_73_ + 728 x_74_ + 342 x_75_ + 784 x_76_ + 954 x_77_ + 85 x_78_ + 210 x_79_ + 667 x_80_ + 493 x_81_ + 600 x_82_ + 655 x_83_ + 255 x_84_ + 679 x_85_ + 818 x_86_ + 629 x_87_ + 472 x_88_ + 996 x_89_ + 818 x_90_ + 18 x_91_ + 866 x_92_ + 183 x_93_ + 232 x_94_ + 175 x_95_ + 828 x_96_ + 347 x_97_ + 562 x_98_ + 932 x_99_ + 15 x_100_ + 896 x_101_ + 8 x_102_ + 731 x_103_ + 221 x_104_ + 430 x_105_ + 472 x_106_ + 239 x_107_ + 330 x_108_ + 587 x_109_ + 881 x_110_ + 756 x_111_ + 212 x_112_ + 764 x_113_ + 160 x_114_ + 91 x_115_ + 409 x_116_ + 486 x_117_ + 261 x_118_ + 84 x_119_ + 356 x_120_ + 82 x_121_ + 322 x_122_ + 882 x_123_ + 7 x_124_ + 938 x_125_ + 760 x_126_ + 84 x_127_ + 656 x_128_ + 814 x_129_ + 218 x_130_ + 97 x_131_ + 659 x_132_ + 260 x_133_ + 6 x_134_ + 577 x_135_ + 443 x_136_ + 635 x_137_ + 127 x_138_ + 683 x_139_ + 65 x_140_ + 510 x_141_ + 436 x_142_ + 419 x_143_ + 552 x_144_ + 369 x_145_ + 638 x_146_ + 384 x_147_ + 358 x_148_ + 453 x_149_ + 843 x_150_ + 374 x_151_ + 706 x_152_ + 571 x_153_ + 910 x_154_ + 536 x_155_ + 301 x_156_ + 371 x_157_ + 59 x_158_ + 667 x_159_ + 427 x_160_ + 938 x_161_ + 771 x_162_ + 987 x_163_ + 599 x_164_ + 460 x_165_ + 68 x_166_ + 966 x_167_ + 535 x_168_ + 999 x_169_ + 557 x_170_ + 538 x_171_ + 660 x_172_ + 363 x_173_ + 196 x_174_ + 975 x_175_ + 400 x_176_ + 874 x_177_ + 785 x_178_ + 293 x_179_ + 421 x_180_ + 372 x_181_ + 342 x_182_ + 692 x_183_ + 786 x_184_ + 704 x_185_ + 29 x_186_ + 749 x_187_ + 525 x_188_ + 466 x_189_ + 736 x_190_ + 180 x_191_ + 766 x_192_ + 975 x_193_ + 406 x_194_ + 257 x_195_ + 409 x_196_ + 17 x_197_ + 906 x_198_ + 27 x_199_ + 289 x_200_ + 602 x_201_ + 491 x_202_ + 780 x_203_ + 997 x_204_ + 242 x_205_ + 92 x_206_ + 930 x_207_ + 60 x_208_ + 457 x_209_ + 217 x_210_ + 763 x_211_ + 896 x_212_ + 492 x_213_ + 478 x_214_ + 566 x_215_ + 916 x_216_ + 328 x_217_ + 759 x_218_ + 241 x_219_ + 197 x_220_ + 663 x_221_ + 879 x_222_ + 910 x_223_ + 425 x_224_ + 253 x_225_ + 706 x_226_ + 140 x_227_ + 874 x_228_ + 137 x_229_ + 89 x_230_ + 383 x_231_ + 857 x_232_ + 524 x_233_ + 896 x_234_ + 568 x_235_ + 467 x_236_ + 932 x_237_ + 441 x_238_ + 586 x_239_ + 661 x_240_ + 597 x_241_ + 23 x_242_ + 385 x_243_ + 822 x_244_ + 980 x_245_ + 826 x_246_ + 483 x_247_ + 848 x_248_ + 595 x_249_ + 885 x_250_ <= 94426
c7: 1 s_2_ + 307 x_1_ + 278 x_2_ + 395 x_3_ + 897 x_4_ + 106 x_5_ + 213 x_6_ + 941 x_7_ + 727 x_8_ + 516 x_9_ + 218 x_10_ + 254 x_11_ + 200 x_12_ + 387 x_13_ + 751 x_14_ + 990 x_15_ + 69 x_16_ + 639 x_17_ + 133 x_18_ + 439 x_19_ + 509 x_20_ + 208 x_21_ + 225 x_22_ + 78 x_23_ + 922 x_24_ + 329 x_25_ + 910 x_26_ + 228 x_27_ + 746 x_28_ + 428 x_29_ + 622 x_30_ + 497 x_31_ + 287 x_32_ + 893 x_33_ + 472 x_34_ + 708 x_35_ + 285 x_36_ + 584 x_37_ + 64 x_38_ + 205 x_39_ + 622 x_40_ + 913 x_41_ + 713 x_42_ + 951 x_43_ + 72 x_44_ + 959 x_45_ + 611 x_46_ + 759 x_47_ + 545 x_48_ + 376 x_49_ + 573 x_50_ + 925 x_51_ + 416 x_52_ + 92 x_53_ + 601 x_54_ + 61 x_55_ + 267 x_56_ + 713 x_57_ + 386 x_58_ + 548 x_59_ + 615 x_60_ + 185 x_61_ + 406 x_62_ + 330 x_63_ + 84 x_64_ + 356 x_65_ + 227 x_66_ + 644 x_67_ + 484 x_68_ + 119 x_69_ + 275 x_70_ + 359 x_71_ + 247 x_72_ + 738 x_73_ + 535 x_74_ + 36 x_75_ + 624 x_76_ + 211 x_77_ + 365 x_78_ + 895 x_79_ + 957 x_80_ + 348 x_81_ + 105 x_82_ + 541 x_83_ + 529 x_84_ + 797 x_85_ + 765 x_86_ + 472 x_87_ + 649 x_88_ + 465 x_89_ + 216 x_90_ + 244 x_91_ + 593 x_92_ + 33 x_93_ + 191 x_94_ + 927 x_95_ + 260 x_96_ + 403 x_97_ + 199 x_98_ + 699 x_99_ + 789 x_100_ + 288 x_101_ + 198 x_102_ + 250 x_103_ + 857 x_104_ + 512 x_105_ + 372 x_106_ + 238 x_107_ + 560 x_108_ + 822 x_109_ + 836 x_110_ + 70 x_111_ + 176 x_112_ + 931 x_113_ + 722 x_114_ + 127 x_115_ + 536 x_116_ + 612 x_117_ + 749 x_118_ + 545 x_119_ + 525 x_120_ + 698 x_121_ + 41 x_122_ + 5 x_123_ + 390 x_124_ + 981 x_125_ + 635 x_126_ + 263 x_127_ + 736 x_128_ + 384 x_129_ + 251 x_130_ + 287 x_131_ + 513 x_132_ + 395 x_133_ + 80 x_134_ + 31 x_135_ + 876 x_136_ + 635 x_137_ + 656 x_138_ + 276 x_139_ + 601 x_140_ + 665 x_141_ + 210 x_142_ + 492 x_143_ + 402 x_144_ + 917 x_145_ + 929 x_146_ + 908 x_147_ + 374 x_148_ + 624 x_149_ + 480 x_150_ + 655 x_151_ + 750 x_152_ + 404 x_153_ + 550 x_154_ + 277 x_155_ + 40 x_156_ + 69 x_157_ + 912 x_158_ + 82 x_159_ + 831 x_160_ + 532 x_161_ + 297 x_162_ + 513 x_163_ + 519 x_164_ + 7 x_165_ + 763 x_166_ + 228 x_167_ + 897 x_168_ + 922 x_169_ + 26 x_170_ + 21 x_171_ + 19 x_172_ + 180 x_173_ + 725 x_174_ + 210 x_175_ + 844 x_176_ + 977 x_177_ + 972 x_178_ + 635 x_179_ + 298 x_180_ + 651 x_181_ + 712 x_182_ + 946 x_183_ + 652 x_184_ + 687 x_185_ + 333 x_186_ + 126 x_187_ + 55 x_188_ + 832 x_189_ + 632 x_190_ + 968 x_191_ + 33 x_192_ + 959 x_193_ + 616 x_194_ + 938 x_195_ + 687 x_196_ + 189 x_197_ + 678 x_198_ + 907 x_199_ + 143 x_200_ + 302 x_201_ + 564 x_202_ + 803 x_203_ + 637 x_204_ + 766 x_205_ + 519 x_206_ + 342 x_207_ + 37 x_208_ + 200 x_209_ + 540 x_210_ + 211 x_211_ + 117 x_212_ + 771 x_213_ + 556 x_214_ + 634 x_215_ + 424 x_216_ + 299 x_217_ + 263 x_218_ + 375 x_219_ + 266 x_220_ + 608 x_221_ + 921 x_222_ + 809 x_223_ + 767 x_224_ + 424 x_225_ + 71 x_226_ + 345 x_227_ + 218 x_228_ + 805 x_229_ + 385 x_230_ + 667 x_231_ + 311 x_232_ + 583 x_233_ + 629 x_234_ + 638 x_235_ + 527 x_236_ + 392 x_237_ + 318 x_238_ + 314 x_239_ + 222 x_240_ + 482 x_241_ + 65 x_242_ + 230 x_243_ + 654 x_244_ + 560 x_245_ + 251 x_246_ + 776 x_247_ + 426 x_248_ + 103 x_249_ + 420 x_250_ <= 89840
c8: 1 s_3_ + 537 x_1_ + 58 x_2_ + 922 x_3_ + 341 x_4_ + 334 x_5_ + 321 x_6_ + 800 x_7_ + 432 x_8_ + 438 x_9_ + 328 x_10_ + 679 x_11_ + 731 x_12_ + 252 x_13_ + 728 x_14_ + 220 x_15_ + 556 x_16_ + 532 x_17_ + 618 x_18_ + 218 x_19_ + 676 x_20_ + 621 x_21_ + 574 x_22_ + 438 x_23_ + 187 x_24_ + 276 x_25_ + 750 x_26_ + 396 x_27_ + 327 x_28_ + 730 x_29_ + 720 x_30_ + 379 x_31_ + 92 x_32_ + 42 x_33_ + 830 x_34_ + 105 x_35_ + 738 x_36_ + 573 x_37_ + 454 x_38_ + 607 x_39_ + 977 x_40_ + 841 x_41_ + 15 x_42_ + 666 x_43_ + 766 x_44_ + 406 x_45_ + 354 x_46_ + 783 x_47_ + 123 x_48_ + 111 x_49_ + 549 x_50_ + 203 x_51_ + 39 x_52_ + 368 x_53_ + 134 x_54_ + 493 x_55_ + 58 x_56_ + 547 x_57_ + 100 x_58_ + 613 x_59_ + 975 x_60_ + 162 x_61_ + 237 x_62_ + 753 x_63_ + 847 x_64_ + 548 x_65_ + 766 x_66_ + 979 x_67_ + 857 x_68_ + 632 x_69_ + 790 x_70_ + 476 x_71_ + 196 x_72_ + 403 x_73_ + 602 x_74_ + 119 x_75_ + 288 x_76_ + 249 x_77_ + 390 x_78_ + 485 x_79_ + 80 x_80_ + 757 x_81_ + 48 x_82_ + 36 x_83_ + 912 x_84_ + 425 x_85_ + 877 x_86_ + 487 x_87_ + 270 x_88_ + 540 x_89_ + 112 x_90_ + 579 x_91_ + 978 x_92_ + 111 x_93_ + 838 x_94_ + 31 x_95_ + 157 x_96_ + 94 x_97_ + 371 x_98_ + 633 x_99_ + 267 x_100_ + 222 x_101_ + 426 x_102_ + 456 x_103_ + 551 x_104_ + 195 x_105_ + 654 x_106_ + 421 x_107_ + 763 x_108_ + 438 x_109_ + 132 x_110_ + 657 x_111_ + 460 x_112_ + 544 x_113_ + 628 x_114_ + 205 x_115_ + 927 x_116_ + 506 x_117_ + 484 x_118_ + 907 x_119_ + 927 x_120_ + 600 x_121_ + 51 x_122_ + 160 x_123_ + 177 x_124_ + 385 x_125_ + 557 x_126_ + 598 x_127_ + 774 x_128_ + 16 x_129_ + 164 x_130_ + 419 x_131_ + 126 x_132_ + 55 x_133_ + 553 x_134_ + 707 x_135_ + 252 x_136_ + 672 x_137_ + 829 x_138_ + 918 x_139_ + 477 x_140_ + 700 x_141_ + 811 x_142_ + 809 x_143_ + 736 x_144_ + 695 x_145_ + 585 x_146_ + 925 x_147_ + 76 x_148_ + 394 x_149_ + 730 x_150_ + 354 x_151_ + 341 x_152_ + 62 x_153_ + 660 x_154_ + 482 x_155_ + 309 x_156_ + 401 x_157_ + 594 x_158_ + 21 x_159_ + 657 x_160_ + 498 x_161_ + 218 x_162_ + 416 x_163_ + 491 x_164_ + 452 x_165_ + 68 x_166_ + 268 x_167_ + 481 x_168_ + 516 x_169_ + 263 x_170_ + 520 x_171_ + 847 x_172_ + 603 x_173_ + 827 x_174_ + 30 x_175_ + 586 x_176_ + 659 x_177_ + 230 x_178_ + 141 x_179_ + 176 x_180_ + 481 x_181_ + 327 x_182_ + 308 x_183_ + 31 x_184_ + 486 x_185_ + 772 x_186_ + 706 x_187_ + 700 x_188_ + 341 x_189_ + 548 x_190_ + 213 x_191_ + 744 x_192_ + 484 x_193_ + 620 x_194_ + 969 x_195_ + 242 x_196_ + 339 x_197_ + 34 x_198_ + 60 x_199_ + 863 x_200_ + 863 x_201_ + 179 x_202_ + 867 x_203_ + 346 x_204_ + 19 x_205_ + 517 x_206_ + 55 x_207_ + 435 x_208_ + 106 x_209_ + 963 x_210_ + 133 x_211_ + 168 x_212_ + 391 x_213_ + 692 x_214_ + 129 x_215_ + 263 x_216_ + 585 x_217_ + 234 x_218_ + 183 x_219_ + 271 x_220_ + 767 x_221_ + 187 x_222_ + 966 x_223_ + 946 x_224_ + 839 x_225_ + 778 x_226_ + 990 x_227_ + 83 x_228_ + 646 x_229_ + 683 x_230_ + 419 x_231_ + 70 x_232_ + 535 x_233_ + 585 x_234_ + 97 x_235_ + 108 x_236_ + 660 x_237_ + 80 x_238_ + 270 x_239_ + 451 x_240_ + 862 x_241_ + 201 x_242_ + 373 x_243_ + 591 x_244_ + 892 x_245_ + 872 x_246_ + 360 x_247_ + 812 x_248_ + 757 x_249_ + 447 x_250_ <= 87512
c9: 1 s_4_ + 602 x_1_ + 302 x_2_ + 774 x_3_ + 448 x_4_ + 256 x_5_ + 918 x_6_ + 114 x_7_ + 117 x_8_ + 814 x_9_ + 382 x_10_ + 676 x_11_ + 112 x_12_ + 257 x_13_ + 910 x_14_ + 46 x_15_ + 506 x_16_ + 608 x_17_ + 558 x_18_ + 7 x_19_ + 188 x_20_ + 936 x_21_ + 778 x_22_ + 206 x_23_ + 607 x_24_ + 596 x_25_ + 804 x_26_ + 825 x_27_ + 548 x_28_ + 586 x_29_ + 357 x_30_ + 628 x_31_ + 58 x_32_ + 611 x_33_ + 433 x_34_ + 298 x_35_ + 435 x_36_ + 634 x_37_ + 526 x_38_ + 317 x_39_ + 845 x_40_ + 578 x_41_ + 562 x_42_ + 501 x_43_ + 121 x_44_ + 437 x_45_ + 7 x_46_ + 594 x_47_ + 749 x_48_ + 832 x_49_ + 16 x_50_ + 451 x_51_ + 610 x_52_ + 200 x_53_ + 232 x_54_ + 874 x_55_ + 470 x_56_ + 107 x_57_ + 63 x_58_ + 29 x_59_ + 639 x_60_ + 342 x_61_ + 860 x_62_ + 277 x_63_ + 571 x_64_ + 890 x_65_ + 128 x_66_ + 347 x_67_ + 418 x_68_ + 69 x_69_ + 608 x_70_ + 912 x_71_ + 489 x_72_ + 914 x_73_ + 409 x_74_ + 338 x_75_ + 445 x_76_ + 632 x_77_ + 889 x_78_ + 605 x_79_ + 443 x_80_ + 163 x_81_ + 394 x_82_ + 847 x_83_ + 586 x_84_ + 316 x_85_ + 445 x_86_ + 290 x_87_ + 21 x_88_ + 633 x_89_ + 448 x_90_ + 256 x_91_ + 393 x_92_ + 45 x_93_ + 487 x_94_ + 936 x_95_ + 739 x_96_ + 78 x_97_ + 979 x_98_ + 466 x_99_ + 536 x_100_ + 641 x_101_ + 750 x_102_ + 283 x_103_ + 593 x_104_ + 485 x_105_ + 66 x_106_ + 633 x_107_ + 452 x_108_ + 697 x_109_ + 596 x_110_ + 190 x_111_ + 499 x_112_ + 559 x_113_ + 428 x_114_ + 966 x_115_ + 755 x_116_ + 957 x_117_ + 185 x_118_ + 567 x_119_ + 116 x_120_ + 704 x_121_ + 166 x_122_ + 258 x_123_ + 67 x_124_ + 223 x_125_ + 383 x_126_ + 293 x_127_ + 330 x_128_ + 152 x_129_ + 402 x_130_ + 806 x_131_ + 930 x_132_ + 77 x_133_ + 974 x_134_ + 271 x_135_ + 486 x_136_ + 684 x_137_ + 268 x_138_ + 212 x_139_ + 911 x_140_ + 370 x_141_ + 144 x_142_ + 614 x_143_ + 846 x_144_ + 709 x_145_ + 750 x_146_ + 573 x_147_ + 389 x_148_ + 139 x_149_ + 268 x_150_ + 271 x_151_ + 92 x_152_ + 878 x_153_ + 483 x_154_ + 627 x_155_ + 477 x_156_ + 284 x_157_ + 437 x_158_ + 28 x_159_ + 967 x_160_ + 512 x_161_ + 709 x_162_ + 590 x_163_ + 306 x_164_ + 754 x_165_ + 817 x_166_ + 939 x_167_ + 815 x_168_ + 935 x_169_ + 113 x_170_ + 970 x_171_ + 293 x_172_ + 265 x_173_ + 757 x_174_ + 899 x_175_ + 963 x_176_ + 28 x_177_ + 816 x_178_ + 813 x_179_ + 233 x_180_ + 829 x_181_ + 181 x_182_ + 428 x_183_ + 837 x_184_ + 907 x_185_ + 558 x_186_ + 564 x_187_ + 446 x_188_ + 283 x_189_ + 975 x_190_ + 206 x_191_ + 754 x_192_ + 893 x_193_ + 36 x_194_ + 813 x_195_ + 376 x_196_ + 624 x_197_ + 791 x_198_ + 734 x_199_ + 476 x_200_ + 157 x_201_ + 288 x_202_ + 107 x_203_ + 935 x_204_ + 342 x_205_ + 170 x_206_ + 991 x_207_ + 114 x_208_ + 733 x_209_ + 441 x_210_ + 367 x_211_ + 894 x_212_ + 36 x_213_ + 694 x_214_ + 981 x_215_ + 557 x_216_ + 881 x_217_ + 142 x_218_ + 267 x_219_ + 662 x_220_ + 389 x_221_ + 606 x_222_ + 882 x_223_ + 348 x_224_ + 224 x_225_ + 343 x_226_ + 608 x_227_ + 947 x_228_ + 590 x_229_ + 617 x_230_ + 867 x_231_ + 919 x_232_ + 1000 x_233_ + 72 x_234_ + 895 x_235_ + 412 x_236_ + 978 x_237_ + 329 x_238_ + 985 x_239_ + 884 x_240_ + 304 x_241_ + 267 x_242_ + 986 x_243_ + 917 x_244_ + 720 x_245_ + 246 x_246_ + 330 x_247_ + 479 x_248_ + 78 x_249_ + 812 x_250_ <= 95798
c10: 1 s_5_ + 314 x_1_ + 982 x_2_ + 186 x_3_ + 610 x_4_ + 32 x_5_ + 724 x_6_ + 1 x_7_ + 253 x_8_ + 880 x_9_ + 763 x_10_ + 133 x_11_ + 989 x_12_ + 695 x_13_ + 677 x_14_ + 677 x_15_ + 410 x_16_ + 911 x_17_ + 628 x_18_ + 965 x_19_ + 616 x_20_ + 737 x_21_ + 337 x_22_ + 181 x_23_ + 829 x_24_ + 262 x_25_ + 13 x_26_ + 953 x_27_ + 788 x_28_ + 332 x_29_ + 608 x_30_ + 578 x_31_ + 273 x_32_ + 352 x_33_ + 197 x_34_ + 369 x_35_ + 779 x_36_ + 320 x_37_ + 338 x_38_ + 911 x_39_ + 680 x_40_ + 374 x_41_ + 505 x_42_ + 149 x_43_ + 116 x_44_ + 803 x_45_ + 232 x_46_ + 367 x_47_ + 999 x_48_ + 106 x_49_ + 728 x_50_ + 903 x_51_ + 465 x_52_ + 255 x_53_ + 623 x_54_ + 603 x_55_ + 254 x_56_ + 91 x_57_ + 526 x_58_ + 686 x_59_ + 482 x_60_ + 761 x_61_ + 739 x_62_ + 191 x_63_ + 587 x_64_ + 798 x_65_ + 964 x_66_ + 515 x_67_ + 113 x_68_ + 866 x_69_ + 271 x_70_ + 443 x_71_ + 198 x_72_ + 137 x_73_ + 484 x_74_ + 413 x_75_ + 110 x_76_ + 928 x_77_ + 687 x_78_ + 276 x_79_ + 733 x_80_ + 432 x_81_ + 951 x_82_ + 344 x_83_ + 210 x_84_ + 540 x_85_ + 681 x_86_ + 307 x_87_ + 496 x_88_ + 442 x_89_ + 505 x_90_ + 519 x_91_ + 998 x_92_ + 619 x_93_ + 213 x_94_ + 987 x_95_ + 875 x_96_ + 442 x_97_ + 178 x_98_ + 80 x_99_ + 356 x_100_ + 15 x_101_ + 315 x_102_ + 349 x_103_ + 673 x_104_ + 57 x_105_ + 181 x_106_ + 583 x_107_ + 898 x_108_ + 797 x_109_ + 395 x_110_ + 109 x_111_ + 29 x_112_ + 449 x_113_ + 242 x_114_ + 415 x_115_ + 237 x_116_ + 974 x_117_ + 460 x_118_ + 524 x_119_ + 633 x_120_ + 353 x_121_ + 398 x_122_ + 630 x_123_ + 450 x_124_ + 593 x_125_ + 928 x_126_ + 838 x_127_ + 921 x_128_ + 846 x_129_ + 63 x_130_ + 167 x_131_ + 460 x_132_ + 261 x_133_ + 813 x_134_ + 876 x_135_ + 863 x_136_ + 862 x_137_ + 779 x_138_ + 424 x_139_ + 314 x_140_ + 826 x_141_ + 259 x_142_ + 834 x_143_ + 199 x_144_ + 789 x_145_ + 712 x_146_ + 428 x_147_ + 832 x_148_ + 935 x_149_ + 234 x_150_ + 519 x_151_ + 570 x_152_ + 938 x_153_ + 52 x_154_ + 913 x_155_ + 156 x_156_ + 59 x_157_ + 28 x_158_ + 810 x_159_ + 566 x_160_ + 713 x_161_ + 852 x_162_ + 993 x_163_ + 121 x_164_ + 558 x_165_ + 197 x_166_ + 1 x_167_ + 354 x_168_ + 280 x_169_ + 559 x_170_ + 123 x_171_ + 469 x_172_ + 351 x_173_ + 968 x_174_ + 682 x_175_ + 915 x_176_ + 156 x_177_ + 874 x_178_ + 41 x_179_ + 564 x_180_ + 718 x_181_ + 755 x_182_ + 284 x_183_ + 108 x_184_ + 148 x_185_ + 19 x_186_ + 841 x_187_ + 485 x_188_ + 81 x_189_ + 512 x_190_ + 765 x_191_ + 8 x_192_ + 747 x_193_ + 105 x_194_ + 190 x_195_ + 474 x_196_ + 82 x_197_ + 380 x_198_ + 268 x_199_ + 624 x_200_ + 184 x_201_ + 272 x_202_ + 974 x_203_ + 147 x_204_ + 164 x_205_ + 993 x_206_ + 382 x_207_ + 905 x_208_ + 791 x_209_ + 639 x_210_ + 556 x_211_ + 209 x_212_ + 843 x_213_ + 398 x_214_ + 843 x_215_ + 101 x_216_ + 703 x_217_ + 716 x_218_ + 533 x_219_ + 477 x_220_ + 180 x_221_ + 324 x_222_ + 64 x_223_ + 576 x_224_ + 260 x_225_ + 85 x_226_ + 501 x_227_ + 705 x_228_ + 391 x_229_ + 361 x_230_ + 181 x_231_ + 442 x_232_ + 213 x_233_ + 70 x_234_ + 154 x_235_ + 411 x_236_ + 282 x_237_ + 359 x_238_ + 926 x_239_ + 793 x_240_ + 309 x_241_ + 624 x_242_ + 926 x_243_ + 752 x_244_ + 983 x_245_ + 251 x_246_ + 715 x_247_ + 534 x_248_ + 699 x_249_ + 726 x_250_ <= 92823
c1: 1 ss_1_ + 556 x_1_ + 125 x_2_ + 736 x_3_ + 557 x_4_ + 301 x_5_ + 6 x_6_ + 111 x_7_ + 16 x_8_ + 704 x_9_ + 952 x_10_ + 408 x_11_ + 492 x_12_ + 163 x_13_ + 938 x_14_ + 315 x_15_ + 949 x_16_ + 670 x_17_ + 1000 x_18_ + 457 x_19_ + 816 x_20_ + 357 x_21_ + 495 x_22_ + 916 x_23_ + 852 x_24_ + 614 x_25_ + 161 x_26_ + 60 x_27_ + 382 x_28_ + 373 x_29_ + 570 x_30_ + 182 x_31_ + 934 x_32_ + 129 x_33_ + 542 x_34_ + 767 x_35_ + 964 x_36_ + 896 x_37_ + 350 x_38_ + 178 x_39_ + 557 x_40_ + 975 x_41_ + 70 x_42_ + 226 x_43_ + 356 x_44_ + 404 x_45_ + 79 x_46_ + 833 x_47_ + 616 x_48_ + 575 x_49_ + 987 x_50_ + 340 x_51_ + 794 x_52_ + 321 x_53_ + 337 x_54_ + 580 x_55_ + 920 x_56_ + 425 x_57_ + 170 x_58_ + 955 x_59_ + 581 x_60_ + 739 x_61_ + 622 x_62_ + 473 x_63_ + 789 x_64_ + 946 x_65_ + 499 x_66_ + 666 x_67_ + 546 x_68_ + 630 x_69_ + 997 x_70_ + 462 x_71_ + 750 x_72_ + 841 x_73_ + 795 x_74_ + 2 x_75_ + 522 x_76_ + 778 x_77_ + 42 x_78_ + 714 x_79_ + 645 x_80_ + 855 x_81_ + 396 x_82_ + 768 x_83_ + 392 x_84_ + 141 x_85_ + 544 x_86_ + 847 x_87_ + 263 x_88_ + 325 x_89_ + 227 x_90_ + 765 x_91_ + 128 x_92_ + 10 x_93_ + 973 x_94_ + 162 x_95_ + 743 x_96_ + 208 x_97_ + 223 x_98_ + 981 x_99_ + 143 x_100_ + 638 x_101_ + 612 x_102_ + 184 x_103_ + 738 x_104_ + 124 x_105_ + 139 x_106_ + 910 x_107_ + 611 x_108_ + 332 x_109_ + 588 x_110_ + 634 x_111_ + 484 x_112_ + 555 x_113_ + 932 x_114_ + 55 x_115_ + 434 x_116_ + 396 x_117_ + 61 x_118_ + 23 x_119_ + 491 x_120_ + 171 x_121_ + 219 x_122_ + 310 x_123_ + 569 x_124_ + 181 x_125_ + 866 x_126_ + 378 x_127_ + 354 x_128_ + 600 x_129_ + 237 x_130_ + 742 x_131_ + 631 x_132_ + 275 x_133_ + 83 x_134_ + 601 x_135_ + 167 x_136_ + 951 x_137_ + 771 x_138_ + 731 x_139_ + 474 x_140_ + 166 x_141_ + 795 x_142_ + 659 x_143_ + 638 x_144_ + 15 x_145_ + 344 x_146_ + 230 x_147_ + 395 x_148_ + 577 x_149_ + 670 x_150_ + 807 x_151_ + 494 x_152_ + 420 x_153_ + 501 x_154_ + 862 x_155_ + 940 x_156_ + 974 x_157_ + 735 x_158_ + 991 x_159_ + 748 x_160_ + 795 x_161_ + 120 x_162_ + 938 x_163_ + 983 x_164_ + 792 x_165_ + 430 x_166_ + 647 x_167_ + 497 x_168_ + 59 x_169_ + 890 x_170_ + 991 x_171_ + 810 x_172_ + 759 x_173_ + 588 x_174_ + 627 x_175_ + 59 x_176_ + 328 x_177_ + 386 x_178_ + 902 x_179_ + 650 x_180_ + 629 x_181_ + 35 x_182_ + 510 x_183_ + 143 x_184_ + 103 x_185_ + 164 x_186_ + 788 x_187_ + 62 x_188_ + 73 x_189_ + 720 x_190_ + 379 x_191_ + 641 x_192_ + 573 x_193_ + 895 x_194_ + 783 x_195_ + 909 x_196_ + 310 x_197_ + 829 x_198_ + 38 x_199_ + 231 x_200_ + 700 x_201_ + 155 x_202_ + 342 x_203_ + 605 x_204_ + 533 x_205_ + 231 x_206_ + 681 x_207_ + 540 x_208_ + 300 x_209_ + 389 x_210_ + 205 x_211_ + 748 x_212_ + 855 x_213_ + 420 x_214_ + 69 x_215_ + 931 x_216_ + 523 x_217_ + 458 x_218_ + 311 x_219_ + 678 x_220_ + 669 x_221_ + 327 x_222_ + 887 x_223_ + 85 x_224_ + 130 x_225_ + 679 x_226_ + 177 x_227_ + 564 x_228_ + 103 x_229_ + 826 x_230_ + 110 x_231_ + 314 x_232_ + 623 x_233_ + 865 x_234_ + 985 x_235_ + 550 x_236_ + 69 x_237_ + 536 x_238_ + 61 x_239_ + 375 x_240_ + 511 x_241_ + 968 x_242_ + 331 x_243_ + 132 x_244_ + 493 x_245_ + 892 x_246_ + 688 x_247_ + 715 x_248_ + 307 x_249_ + 849 x_250_ >= 96316
c2: 1 ss_2_ + 413 x_1_ + 794 x_2_ + 494 x_3_ + 821 x_4_ + 348 x_5_ + 961 x_6_ + 63 x_7_ + 962 x_8_ + 799 x_9_ + 242 x_10_ + 352 x_11_ + 337 x_12_ + 111 x_13_ + 559 x_14_ + 889 x_15_ + 595 x_16_ + 914 x_17_ + 576 x_18_ + 312 x_19_ + 323 x_20_ + 153 x_21_ + 888 x_22_ + 287 x_23_ + 627 x_24_ + 888 x_25_ + 634 x_26_ + 424 x_27_ + 365 x_28_ + 374 x_29_ + 85 x_30_ + 650 x_31_ + 265 x_32_ + 711 x_33_ + 204 x_34_ + 816 x_35_ + 595 x_36_ + 111 x_37_ + 707 x_38_ + 774 x_39_ + 138 x_40_ + 687 x_41_ + 131 x_42_ + 279 x_43_ + 775 x_44_ + 191 x_45_ + 217 x_46_ + 181 x_47_ + 750 x_48_ + 890 x_49_ + 776 x_50_ + 484 x_51_ + 655 x_52_ + 662 x_53_ + 662 x_54_ + 995 x_55_ + 248 x_56_ + 718 x_57_ + 321 x_58_ + 533 x_59_ + 391 x_60_ + 81 x_61_ + 253 x_62_ + 879 x_63_ + 540 x_64_ + 959 x_65_ + 118 x_66_ + 989 x_67_ + 781 x_68_ + 678 x_69_ + 787 x_70_ + 424 x_71_ + 721 x_72_ + 623 x_73_ + 833 x_74_ + 986 x_75_ + 141 x_76_ + 66 x_77_ + 983 x_78_ + 449 x_79_ + 654 x_80_ + 458 x_81_ + 675 x_82_ + 515 x_83_ + 718 x_84_ + 486 x_85_ + 881 x_86_ + 726 x_87_ + 386 x_88_ + 796 x_89_ + 229 x_90_ + 398 x_91_ + 335 x_92_ + 624 x_93_ + 283 x_94_ + 182 x_95_ + 589 x_96_ + 153 x_97_ + 945 x_98_ + 272 x_99_ + 849 x_100_ + 23 x_101_ + 833 x_102_ + 598 x_103_ + 892 x_104_ + 392 x_105_ + 509 x_106_ + 154 x_107_ + 56 x_108_ + 253 x_109_ + 683 x_110_ + 691 x_111_ + 744 x_112_ + 849 x_113_ + 588 x_114_ + 842 x_115_ + 417 x_116_ + 414 x_117_ + 173 x_118_ + 986 x_119_ + 750 x_120_ + 189 x_121_ + 55 x_122_ + 41 x_123_ + 462 x_124_ + 786 x_125_ + 749 x_126_ + 540 x_127_ + 945 x_128_ + 227 x_129_ + 969 x_130_ + 14 x_131_ + 916 x_132_ + 608 x_133_ + 624 x_134_ + 125 x_135_ + 70 x_136_ + 948 x_137_ + 973 x_138_ + 638 x_139_ + 67 x_140_ + 256 x_141_ + 938 x_142_ + 555 x_143_ + 194 x_144_ + 60 x_145_ + 667 x_146_ + 673 x_147_ + 374 x_148_ + 157 x_149_ + 776 x_150_ + 75 x_151_ + 371 x_152_ + 495 x_153_ + 404 x_154_ + 829 x_155_ + 876 x_156_ + 687 x_157_ + 556 x_158_ + 438 x_159_ + 709 x_160_ + 432 x_161_ + 293 x_162_ + 476 x_163_ + 676 x_164_ + 101 x_165_ + 757 x_166_ + 986 x_167_ + 361 x_168_ + 350 x_169_ + 355 x_170_ + 733 x_171_ + 102 x_172_ + 261 x_173_ + 595 x_174_ + 409 x_175_ + 260 x_176_ + 956 x_177_ + 299 x_178_ + 615 x_179_ + 485 x_180_ + 463 x_181_ + 272 x_182_ + 265 x_183_ + 312 x_184_ + 182 x_185_ + 271 x_186_ + 989 x_187_ + 463 x_188_ + 616 x_189_ + 361 x_190_ + 194 x_191_ + 855 x_192_ + 959 x_193_ + 24 x_194_ + 842 x_195_ + 19 x_196_ + 223 x_197_ + 298 x_198_ + 968 x_199_ + 361 x_200_ + 551 x_201_ + 227 x_202_ + 770 x_203_ + 528 x_204_ + 650 x_205_ + 26 x_206_ + 952 x_207_ + 300 x_208_ + 922 x_209_ + 536 x_210_ + 603 x_211_ + 708 x_212_ + 222 x_213_ + 229 x_214_ + 623 x_215_ + 720 x_216_ + 879 x_217_ + 862 x_218_ + 770 x_219_ + 289 x_220_ + 390 x_221_ + 753 x_222_ + 960 x_223_ + 355 x_224_ + 485 x_225_ + 567 x_226_ + 354 x_227_ + 704 x_228_ + 21 x_229_ + 100 x_230_ + 581 x_231_ + 609 x_232_ + 641 x_233_ + 503 x_234_ + 729 x_235_ + 314 x_236_ + 143 x_237_ + 984 x_238_ + 491 x_239_ + 371 x_240_ + 92 x_241_ + 862 x_242_ + 355 x_243_ + 228 x_244_ + 213 x_245_ + 624 x_246_ + 56 x_247_ + 237 x_248_ + 862 x_249_ + 335 x_250_ >= 96120
c3: 1 ss_3_ + 907 x_1_ + 447 x_2_ + 158 x_3_ + 840 x_4_ + 440 x_5_ + 413 x_6_ + 75 x_7_ + 682 x_8_ + 936 x_9_ + 933 x_10_ + 753 x_11_ + 47 x_12_ + 488 x_13_ + 649 x_14_ + 475 x_15_ + 88 x_16_ + 464 x_17_ + 50 x_18_ + 485 x_19_ + 672 x_20_ + 254 x_21_ + 171 x_22_ + 548 x_23_ + 202 x_24_ + 227 x_25_ + 673 x_26_ + 888 x_27_ + 176 x_28_ + 82 x_29_ + 811 x_30_ + 292 x_31_ + 522 x_32_ + 717 x_33_ + 592 x_34_ + 235 x_35_ + 398 x_36_ + 519 x_37_ + 987 x_38_ + 937 x_39_ + 12 x_40_ + 599 x_41_ + 414 x_42_ + 362 x_43_ + 818 x_44_ + 998 x_45_ + 654 x_46_ + 32 x_47_ + 469 x_48_ + 618 x_49_ + 781 x_50_ + 944 x_51_ + 499 x_52_ + 860 x_53_ + 216 x_54_ + 499 x_55_ + 695 x_56_ + 231 x_57_ + 776 x_58_ + 121 x_59_ + 703 x_60_ + 876 x_61_ + 260 x_62_ + 938 x_63_ + 643 x_64_ + 746 x_65_ + 967 x_66_ + 360 x_67_ + 630 x_68_ + 46 x_69_ + 555 x_70_ + 818 x_71_ + 52 x_72_ + 6 x_73_ + 331 x_74_ + 24 x_75_ + 328 x_76_ + 749 x_77_ + 206 x_78_ + 906 x_79_ + 346 x_80_ + 104 x_81_ + 415 x_82_ + 680 x_83_ + 187 x_84_ + 220 x_85_ + 255 x_86_ + 122 x_87_ + 51 x_88_ + 231 x_89_ + 536 x_90_ + 897 x_91_ + 727 x_92_ + 782 x_93_ + 113 x_94_ + 947 x_95_ + 206 x_96_ + 566 x_97_ + 738 x_98_ + 733 x_99_ + 891 x_100_ + 673 x_101_ + 435 x_102_ + 96 x_103_ + 691 x_104_ + 589 x_105_ + 157 x_106_ + 279 x_107_ + 985 x_108_ + 10 x_109_ + 49 x_110_ + 976 x_111_ + 95 x_112_ + 981 x_113_ + 71 x_114_ + 504 x_115_ + 494 x_116_ + 635 x_117_ + 702 x_118_ + 386 x_119_ + 802 x_120_ + 93 x_121_ + 877 x_122_ + 470 x_123_ + 946 x_124_ + 16 x_125_ + 736 x_126_ + 274 x_127_ + 448 x_128_ + 418 x_129_ + 337 x_130_ + 716 x_131_ + 801 x_132_ + 568 x_133_ + 306 x_134_ + 160 x_135_ + 713 x_136_ + 76 x_137_ + 360 x_138_ + 413 x_139_ + 563 x_140_ + 458 x_141_ + 397 x_142_ + 573 x_143_ + 815 x_144_ + 863 x_145_ + 992 x_146_ + 885 x_147_ + 443 x_148_ + 150 x_149_ + 365 x_150_ + 185 x_151_ + 981 x_152_ + 117 x_153_ + 937 x_154_ + 448 x_155_ + 344 x_156_ + 783 x_157_ + 895 x_158_ + 820 x_159_ + 302 x_160_ + 72 x_161_ + 890 x_162_ + 325 x_163_ + 205 x_164_ + 82 x_165_ + 977 x_166_ + 329 x_167_ + 32 x_168_ + 881 x_169_ + 267 x_170_ + 842 x_171_ + 802 x_172_ + 686 x_173_ + 747 x_174_ + 866 x_175_ + 893 x_176_ + 461 x_177_ + 838 x_178_ + 949 x_179_ + 413 x_180_ + 138 x_181_ + 271 x_182_ + 492 x_183_ + 684 x_184_ + 253 x_185_ + 290 x_186_ + 608 x_187_ + 313 x_188_ + 240 x_189_ + 471 x_190_ + 162 x_191_ + 47 x_192_ + 690 x_193_ + 495 x_194_ + 255 x_195_ + 810 x_196_ + 968 x_197_ + 84 x_198_ + 431 x_199_ + 375 x_200_ + 815 x_201_ + 67 x_202_ + 923 x_203_ + 376 x_204_ + 432 x_205_ + 758 x_206_ + 844 x_207_ + 4 x_208_ + 541 x_209_ + 906 x_210_ + 930 x_211_ + 148 x_212_ + 90 x_213_ + 531 x_214_ + 632 x_215_ + 145 x_216_ + 851 x_217_ + 749 x_218_ + 868 x_219_ + 744 x_220_ + 56 x_221_ + 365 x_222_ + 174 x_223_ + 841 x_224_ + 669 x_225_ + 709 x_226_ + 782 x_227_ + 112 x_228_ + 457 x_229_ + 627 x_230_ + 171 x_231_ + 424 x_232_ + 371 x_233_ + 213 x_234_ + 650 x_235_ + 8 x_236_ + 719 x_237_ + 254 x_238_ + 412 x_239_ + 289 x_240_ + 104 x_241_ + 258 x_242_ + 906 x_243_ + 121 x_244_ + 155 x_245_ + 205 x_246_ + 927 x_247_ + 799 x_248_ + 578 x_249_ + 201 x_250_ >= 92941
c4: 1 ss_4_ + 547 x_1_ + 399 x_2_ + 669 x_3_ + 818 x_4_ + 623 x_5_ + 164 x_6_ + 859 x_7_ + 960 x_8_ + 509 x_9_ + 365 x_10_ + 351 x_11_ + 949 x_12_ + 25 x_13_ + 197 x_14_ + 264 x_15_ + 678 x_16_ + 581 x_17_ + 500 x_18_ + 285 x_19_ + 422 x_20_ + 802 x_21_ + 200 x_22_ + 287 x_23_ + 968 x_24_ + 674 x_25_ + 379 x_26_ + 733 x_27_ + 455 x_28_ + 956 x_29_ + 967 x_30_ + 829 x_31_ + 154 x_32_ + 902 x_33_ + 240 x_34_ + 70 x_35_ + 212 x_36_ + 878 x_37_ + 160 x_38_ + 900 x_39_ + 594 x_40_ + 582 x_41_ + 365 x_42_ + 49 x_43_ + 368 x_44_ + 156 x_45_ + 68 x_46_ + 99 x_47_ + 554 x_48_ + 145 x_49_ + 319 x_50_ + 303 x_51_ + 423 x_52_ + 257 x_53_ + 348 x_54_ + 915 x_55_ + 905 x_56_ + 684 x_57_ + 562 x_58_ + 217 x_59_ + 471 x_60_ + 532 x_61_ + 334 x_62_ + 601 x_63_ + 729 x_64_ + 566 x_65_ + 886 x_66_ + 824 x_67_ + 253 x_68_ + 606 x_69_ + 618 x_70_ + 418 x_71_ + 217 x_72_ + 153 x_73_ + 725 x_74_ + 701 x_75_ + 451 x_76_ + 402 x_77_ + 372 x_78_ + 820 x_79_ + 111 x_80_ + 770 x_81_ + 205 x_82_ + 698 x_83_ + 976 x_84_ + 370 x_85_ + 449 x_86_ + 378 x_87_ + 633 x_88_ + 566 x_89_ + 240 x_90_ + 13 x_91_ + 689 x_92_ + 385 x_93_ + 319 x_94_ + 341 x_95_ + 863 x_96_ + 462 x_97_ + 630 x_98_ + 91 x_99_ + 525 x_100_ + 789 x_101_ + 927 x_102_ + 582 x_103_ + 728 x_104_ + 683 x_105_ + 915 x_106_ + 578 x_107_ + 454 x_108_ + 25 x_109_ + 187 x_110_ + 95 x_111_ + 523 x_112_ + 578 x_113_ + 599 x_114_ + 209 x_115_ + 957 x_116_ + 99 x_117_ + 626 x_118_ + 34 x_119_ + 54 x_120_ + 768 x_121_ + 220 x_122_ + 187 x_123_ + 283 x_124_ + 49 x_125_ + 86 x_126_ + 292 x_127_ + 308 x_128_ + 163 x_129_ + 786 x_130_ + 303 x_131_ + 659 x_132_ + 915 x_133_ + 34 x_134_ + 856 x_135_ + 879 x_136_ + 318 x_137_ + 227 x_138_ + 754 x_139_ + 444 x_140_ + 168 x_141_ + 828 x_142_ + 634 x_143_ + 209 x_144_ + 48 x_145_ + 378 x_146_ + 478 x_147_ + 280 x_148_ + 637 x_149_ + 366 x_150_ + 519 x_151_ + 209 x_152_ + 990 x_153_ + 623 x_154_ + 849 x_155_ + 292 x_156_ + 295 x_157_ + 655 x_158_ + 913 x_159_ + 854 x_160_ + 472 x_161_ + 14 x_162_ + 751 x_163_ + 14 x_164_ + 553 x_165_ + 461 x_166_ + 271 x_167_ + 204 x_168_ + 579 x_169_ + 339 x_170_ + 190 x_171_ + 516 x_172_ + 492 x_173_ + 84 x_174_ + 468 x_175_ + 128 x_176_ + 570 x_177_ + 309 x_178_ + 1 x_179_ + 493 x_180_ + 576 x_181_ + 285 x_182_ + 147 x_183_ + 597 x_184_ + 477 x_185_ + 250 x_186_ + 90 x_187_ + 582 x_188_ + 997 x_189_ + 429 x_190_ + 444 x_191_ + 322 x_192_ + 523 x_193_ + 883 x_194_ + 866 x_195_ + 657 x_196_ + 94 x_197_ + 125 x_198_ + 313 x_199_ + 63 x_200_ + 497 x_201_ + 967 x_202_ + 963 x_203_ + 544 x_204_ + 525 x_205_ + 445 x_206_ + 666 x_207_ + 978 x_208_ + 391 x_209_ + 745 x_210_ + 286 x_211_ + 908 x_212_ + 94 x_213_ + 137 x_214_ + 797 x_215_ + 850 x_216_ + 564 x_217_ + 975 x_218_ + 249 x_219_ + 863 x_220_ + 924 x_221_ + 364 x_222_ + 738 x_223_ + 291 x_224_ + 241 x_225_ + 573 x_226_ + 632 x_227_ + 995 x_228_ + 961 x_229_ + 190 x_230_ + 661 x_231_ + 990 x_232_ + 527 x_233_ + 700 x_234_ + 167 x_235_ + 522 x_236_ + 913 x_237_ + 518 x_238_ + 250 x_239_ + 58 x_240_ + 445 x_241_ + 81 x_242_ + 921 x_243_ + 676 x_244_ + 211 x_245_ + 112 x_246_ + 339 x_247_ + 314 x_248_ + 779 x_249_ + 16 x_250_ >= 90613
c5: 1 ss_5_ + 599 x_1_ + 63 x_2_ + 627 x_3_ + 495 x_4_ + 55 x_5_ + 314 x_6_ + 599 x_7_ + 374 x_8_ + 472 x_9_ + 554 x_10_ + 946 x_11_ + 583 x_12_ + 359 x_13_ + 675 x_14_ + 87 x_15_ + 563 x_16_ + 150 x_17_ + 661 x_18_ + 58 x_19_ + 523 x_20_ + 885 x_21_ + 946 x_22_ + 125 x_23_ + 544 x_24_ + 318 x_25_ + 593 x_26_ + 647 x_27_ + 299 x_28_ + 47 x_29_ + 898 x_30_ + 462 x_31_ + 502 x_32_ + 572 x_33_ + 556 x_34_ + 361 x_35_ + 385 x_36_ + 464 x_37_ + 105 x_38_ + 533 x_39_ + 83 x_40_ + 1 x_41_ + 112 x_42_ + 323 x_43_ + 14 x_44_ + 581 x_45_ + 291 x_46_ + 159 x_47_ + 108 x_48_ + 702 x_49_ + 454 x_50_ + 251 x_51_ + 385 x_52_ + 537 x_53_ + 337 x_54_ + 675 x_55_ + 787 x_56_ + 970 x_57_ + 822 x_58_ + 528 x_59_ + 782 x_60_ + 29 x_61_ + 81 x_62_ + 430 x_63_ + 957 x_64_ + 599 x_65_ + 52 x_66_ + 314 x_67_ + 180 x_68_ + 877 x_69_ + 28 x_70_ + 115 x_71_ + 483 x_72_ + 451 x_73_ + 434 x_74_ + 494 x_75_ + 849 x_76_ + 212 x_77_ + 520 x_78_ + 178 x_79_ + 354 x_80_ + 251 x_81_ + 72 x_82_ + 770 x_83_ + 806 x_84_ + 580 x_85_ + 97 x_86_ + 80 x_87_ + 821 x_88_ + 379 x_89_ + 635 x_90_ + 508 x_91_ + 988 x_92_ + 748 x_93_ + 542 x_94_ + 41 x_95_ + 451 x_96_ + 87 x_97_ + 107 x_98_ + 658 x_99_ + 636 x_100_ + 426 x_101_ + 284 x_102_ + 7 x_103_ + 605 x_104_ + 904 x_105_ + 430 x_106_ + 266 x_107_ + 349 x_108_ + 984 x_109_ + 519 x_110_ + 726 x_111_ + 815 x_112_ + 953 x_113_ + 420 x_114_ + 971 x_115_ + 419 x_116_ + 875 x_117_ + 335 x_118_ + 294 x_119_ + 549 x_120_ + 122 x_121_ + 664 x_122_ + 792 x_123_ + 462 x_124_ + 248 x_125_ + 751 x_126_ + 108 x_127_ + 305 x_128_ + 153 x_129_ + 428 x_130_ + 170 x_131_ + 769 x_132_ + 64 x_133_ + 554 x_134_ + 720 x_135_ + 618 x_136_ + 476 x_137_ + 25 x_138_ + 705 x_139_ + 986 x_140_ + 478 x_141_ + 400 x_142_ + 37 x_143_ + 591 x_144_ + 387 x_145_ + 925 x_146_ + 960 x_147_ + 838 x_148_ + 10 x_149_ + 361 x_150_ + 756 x_151_ + 82 x_152_ + 824 x_153_ + 368 x_154_ + 784 x_155_ + 894 x_156_ + 505 x_157_ + 458 x_158_ + 976 x_159_ + 70 x_160_ + 387 x_161_ + 21 x_162_ + 91 x_163_ + 76 x_164_ + 573 x_165_ + 664 x_166_ + 956 x_167_ + 522 x_168_ + 667 x_169_ + 546 x_170_ + 424 x_171_ + 891 x_172_ + 963 x_173_ + 202 x_174_ + 85 x_175_ + 764 x_176_ + 906 x_177_ + 368 x_178_ + 896 x_179_ + 607 x_180_ + 218 x_181_ + 38 x_182_ + 989 x_183_ + 312 x_184_ + 573 x_185_ + 49 x_186_ + 253 x_187_ + 762 x_188_ + 265 x_189_ + 731 x_190_ + 820 x_191_ + 155 x_192_ + 966 x_193_ + 269 x_194_ + 934 x_195_ + 932 x_196_ + 477 x_197_ + 359 x_198_ + 979 x_199_ + 357 x_200_ + 421 x_201_ + 992 x_202_ + 117 x_203_ + 734 x_204_ + 569 x_205_ + 778 x_206_ + 590 x_207_ + 872 x_208_ + 826 x_209_ + 748 x_210_ + 676 x_211_ + 881 x_212_ + 691 x_213_ + 728 x_214_ + 529 x_215_ + 821 x_216_ + 923 x_217_ + 169 x_218_ + 803 x_219_ + 896 x_220_ + 224 x_221_ + 217 x_222_ + 570 x_223_ + 13 x_224_ + 59 x_225_ + 202 x_226_ + 935 x_227_ + 837 x_228_ + 38 x_229_ + 124 x_230_ + 719 x_231_ + 660 x_232_ + 114 x_233_ + 745 x_234_ + 903 x_235_ + 746 x_236_ + 579 x_237_ + 69 x_238_ + 852 x_239_ + 489 x_240_ + 54 x_241_ + 182 x_242_ + 599 x_243_ + 740 x_244_ + 233 x_245_ + 935 x_246_ + 414 x_247_ + 447 x_248_ + 576 x_249_ + 960 x_250_ >= 92847
Bounds
s_1_ <= 0
s_2_ <= 0
s_3_ <= 0
s_4_ <= 0
s_5_ <= 0
ss_1_ >= 0
ss_2_ >= 0
ss_3_ >= 0
ss_4_ >= 0
ss_5_ >= 0
Binary
x_1_
x_2_
x_3_
x_4_
x_5_
x_6_
x_7_
x_8_
x_9_
x_10_
x_11_
x_12_
x_13_
x_14_
x_15_
x_16_
x_17_
x_18_
x_19_
x_20_
x_21_
x_22_
x_23_
x_24_
x_25_
x_26_
x_27_
x_28_
x_29_
x_30_
x_31_
x_32_
x_33_
x_34_
x_35_
x_36_
x_37_
x_38_
x_39_
x_40_
x_41_
x_42_
x_43_
x_44_
x_45_
x_46_
x_47_
x_48_
x_49_
x_50_
x_51_
x_52_
x_53_
x_54_
x_55_
x_56_
x_57_
x_58_
x_59_
x_60_
x_61_
x_62_
x_63_
x_64_
x_65_
x_66_
x_67_
x_68_
x_69_
x_70_
x_71_
x_72_
x_73_
x_74_
x_75_
x_76_
x_77_
x_78_
x_79_
x_80_
x_81_
x_82_
x_83_
x_84_
x_85_
x_86_
x_87_
x_88_
x_89_
x_90_
x_91_
x_92_
x_93_
x_94_
x_95_
x_96_
x_97_
x_98_
x_99_
x_100_
x_101_
x_102_
x_103_
x_104_
x_105_
x_106_
x_107_
x_108_
x_109_
x_110_
x_111_
x_112_
x_113_
x_114_
x_115_
x_116_
x_117_
x_118_
x_119_
x_120_
x_121_
x_122_
x_123_
x_124_
x_125_
x_126_
x_127_
x_128_
x_129_
x_130_
x_131_
x_132_
x_133_
x_134_
x_135_
x_136_
x_137_
x_138_
x_139_
x_140_
x_141_
x_142_
x_143_
x_144_
x_145_
x_146_
x_147_
x_148_
x_149_
x_150_
x_151_
x_152_
x_153_
x_154_
x_155_
x_156_
x_157_
x_158_
x_159_
x_160_
x_161_
x_162_
x_163_
x_164_
x_165_
x_166_
x_167_
x_168_
x_169_
x_170_
x_171_
x_172_
x_173_
x_174_
x_175_
x_176_
x_177_
x_178_
x_179_
x_180_
x_181_
x_182_
x_183_
x_184_
x_185_
x_186_
x_187_
x_188_
x_189_
x_190_
x_191_
x_192_
x_193_
x_194_
x_195_
x_196_
x_197_
x_198_
x_199_
x_200_
x_201_
x_202_
x_203_
x_204_
x_205_
x_206_
x_207_
x_208_
x_209_
x_210_
x_211_
x_212_
x_213_
x_214_
x_215_
x_216_
x_217_
x_218_
x_219_
x_220_
x_221_
x_222_
x_223_
x_224_
x_225_
x_226_
x_227_
x_228_
x_229_
x_230_
x_231_
x_232_
x_233_
x_234_
x_235_
x_236_
x_237_
x_238_
x_239_
x_240_
x_241_
x_242_
x_243_
x_244_
x_245_
x_246_
x_247_
x_248_
x_249_
x_250_
End
